p tw 39 42
1 2
2 13
3 4
4 5
4 6
5 6
6 7
7 8
8 9
9 10
10 11
10 16
11 12
12 14
13 24
14 15
15 22
16 17
17 18
18 19
18 22
19 20
20 21
21 22
22 23
23 25
24 34
25 26
26 27
27 37
28 29
29 30
30 31
31 32
32 33
34 35
35 36
36 37
37 38
38 39
39 3
39 28
